tsp_instances/TSP20/instance35.tsp
NODE_COORD_SECTION
0 193 171
1 200 57
2 163 24
3 0 198
4 79 99
5 63 195
6 163 94
7 39 155
8 36 89
9 46 129
10 84 71
11 2 156
12 19 41
13 196 9
14 144 64
15 93 15
16 47 199
17 195 134
18 175 66
19 93 139
