tsp_instances/TSP20/instance35.opt.tour
TOUR_SECTION
1
18
7
15
19
2
14
3
16
13
9
11
5
10
8
12
4
17
6
20
-1